10	5 
346	4	0	20	3	87	1	31	4	76	2	17
270	4	4	25	2	32	0	24	1	18	3	81
420	2	1	72	2	23	4	28	0	58	3	99
591	2	2	86	1	76	4	97	0	45	3	90
270	2	4	27	0	42	3	48	2	17	1	46
453	2	1	67	0	98	4	48	3	27	2	62
283	2	4	28	1	12	3	19	0	80	2	50
577	2	1	63	0	94	2	98	3	50	4	80
352	1	4	14	0	75	2	50	1	41	3	55
400	1	4	72	2	18	1	37	3	79	0	61
